benchmarks_vrp/CMT5/no_cluster/CMT5_10.vrp
NAME: CMT5_10
TYPE: CVRP
COMMENT: 1291.29 - Cluster Nr.10
DIMENSION: 13
CAPACITY: 200
EDGE_WEIGHT_TYPE: EUC_2D
NODE_COORD_TYPE: TWOD_COORDS
NODE_COORD_SECTION: 
12 65 20
13 55 5
6 60 12
5 60 15
10 55 20
3 35 35
7 59 15
9 66 14
8 55 20
11 63 23
4 51 21
1 62 24
2 54 10
DEPOT_SECTION: 
3
-1
DEMAND_SECTION: 
3 0
2 12
1 8
12 6
4 5
13 29
10 21
5 14
11 2
6 31
7 14
8 19
9 22
EOF
