benchmarks_vrp/CMT5/no_cluster/CMT5_10.tour
NAME: CMT5_10 solution
TYPE: TOUR
TOUR_SECTION:
3 1 11 12 9 5 7 6 13 2 10 8 4 -1
-1
EOF